inputs/321.in
10
0 83 10 9 21 51 35 39 9 45 
83 0 66 73 75 30 82 71 4 53 
10 66 0 72 17 23 11 7 56 50 
9 73 72 0 8 70 76 26 96 63 
21 75 17 8 0 95 82 93 33 36 
51 30 23 70 95 0 14 32 46 47 
35 82 11 76 82 14 0 43 1 6 
39 71 7 26 93 32 43 0 9 32 
9 4 56 96 33 46 1 9 0 15 
45 53 50 63 36 47 6 32 15 0 
RRBBBRBRRB
