output/321.out
5 4 1 3 8 6 7 10 9 2 
